c A SAT instance generated from a 3-CNF formula that had 40 clauses and 10 variables
p cnf 10 40
-3 -2 -10 0
-4 -3 10 0
8 -9 1 0
-1 8 -6 0
6 -3 -10 0
5 9 1 0
6 -7 -9 0
6 -9 -2 0
1 -9 3 0
-5 -10 6 0
4 2 8 0
-4 -2 10 0
10 3 -4 0
7 10 1 0
-10 -2 9 0
-6 -5 -7 0
-1 -6 4 0
10 7 -3 0
4 -9 -5 0
10 -8 -7 0
-10 -7 -2 0
2 -3 4 0
3 7 -6 0
6 -5 1 0
-7 -8 9 0
5 9 1 0
5 -2 10 0
8 4 -5 0
6 -2 9 0
7 6 2 0
-4 -2 9 0
8 -10 -6 0
-10 -9 8 0
4 3 -7 0
1 -6 7 0
-8 5 3 0
-10 4 -6 0
2 6 -4 0
10 -4 -5 0
3 7 8 0
